Traveling Salesman Problem/TSP_generados/Aleatorio1620391058_13.tsp
NAME: Aleatorio1620391058_13.tsp
COMMENT: Randomly generated scenario
TYPE: TSP
DIMENSION: 13
EDGE_WEIGHT_TYPE: ATT
NODE_COORD_SECTION
1 23.55 37.57
2 36.28 35.65
3 21.17 49.86
4 37.54 39.29
5 21.25 31.16
6 45.84 38.14
7 10.67 41.3
8 48.95 46.54
9 49.16 40.43
10 20.43 43.32
11 25.12 46.28
12 10.47 4.78
13 22.89 42.42
