Traveling Salesman Problem/TSP_generados/Aleatorio1620391058_13.opt.tour
NAME: Aleatorio1620391058_13.opt.tour
COMMENT: Optimal solution for Aleatorio1620391058_13 (156.4651426667206)
TYPE: TOUR
DIMENSION: 13
TOUR_SECTION
1 5 12 7 10 13 3 11 8 9 6 4 2
-1
EOF
